Ideal x10 cumulene                      
   1.00000000000000     
    15.8191995620999997    0.0000000000000000    0.0000000000000000
     0.0000000000000000   15.8191995620999997    0.0000000000000000
     0.0000000000000000    0.0000000000000000   15.2519999999999154
   C 
    10
Selective dynamics
Direct
  0.5000000000000000  0.5000000000000000  0.0000000000000000   F   F   F
  0.5000000000000000  0.5000000000000000  0.0854148843798416   F   F   T
  0.5000000000000000  0.5000000000000000  0.1703265670164768   F   F   T
  0.5000000000000000  0.5000000000000000  0.2540046192933709   F   F   T
  0.5000000000000000  0.5000000000000000  0.3382602537599254   F   F   T
  0.5000000000000000  0.5000000000000000  0.4220211313288603   F   F   T
  0.5000000000000000  0.5000000000000000  0.5062768299102377   F   F   T
  0.5000000000000000  0.5000000000000000  0.5899550157684067   F   F   T
  0.5000000000000000  0.5000000000000000  0.6748668612348941   F   F   T
  0.5000000000000000  0.5000000000000000  0.7602820509230389   F   F   T
 
  0.00000000E+00  0.00000000E+00  0.00000000E+00
  0.00000000E+00  0.00000000E+00  0.00000000E+00
  0.00000000E+00  0.00000000E+00  0.00000000E+00
  0.00000000E+00  0.00000000E+00  0.00000000E+00
  0.00000000E+00  0.00000000E+00  0.00000000E+00
  0.00000000E+00  0.00000000E+00  0.00000000E+00
  0.00000000E+00  0.00000000E+00  0.00000000E+00
  0.00000000E+00  0.00000000E+00  0.00000000E+00
  0.00000000E+00  0.00000000E+00  0.00000000E+00
  0.00000000E+00  0.00000000E+00  0.00000000E+00
