Ideal x10 cumulene                      
   1.00000000000000     
    15.8191995620999997    0.0000000000000000    0.0000000000000000
     0.0000000000000000   15.8191995620999997    0.0000000000000000
     0.0000000000000000    0.0000000000000000   15.2549999999999155
   C 
    10
Selective dynamics
Cartesian
7.9095997810499998   7.9095997810499998   0.0000000000000000   F   F   F 
7.9095997810499998   7.9095997810499998   1.3027484650536638   F   F   T 
7.9095997810499998   7.9095997810499998   2.5978318931790385   F   F   T 
7.9095997810499998   7.9095997810499998   3.8740962941407999   F   F   T 
7.9095997810499998   7.9095997810499998   5.1591729340749222   F   F   T 
7.9095997810499998   7.9095997810499998   6.4367009026724578   F   F   T 
7.9095997810499998   7.9095997810499998   7.7217783988884774   F   F   T 
7.9095997810499998   7.9095997810499998   8.9980447277544418   F   F   T 
7.9095997810499998   7.9095997810499998   10.2931306325266565   F   F   T 
7.9095997810499998   7.9095997810499998   11.5958837022251569   F   F   T 
