test
1.0
        8.0000000000         0.0000000000         0.0000000000
        0.0000000000         8.0000000000         0.0000000000
        0.0000000000         0.0000000000         8.0000000000
   Ti
    2
Cartesian
     0.000000000         0.000000000         0.000000000
     4.000000000         4.000000000         4.000000000
